decision_x1=[0,2];
decision_x2=[0,2];
decision_x3=[0,2];
decision_x4=[0,2];
decision_x5=[0,2];
decision_x6=[0,2];
decision_x7=[0,2];
decision_x8=[0,2];
decision_x9=[0,2];
decision_x10=[0,2];
random_y1=[0,2];
random_y2=[0,2];
constraint_x2_x1=[
0,1,8.8|
0,2,9.1|
1,0,0.19|
1,2,9.9|
2,0,9.8|
2,1,0.11|
];
constraint_x4_x1=[
0,1,3.6|
0,2,4.5|
1,0,2.5|
1,2,9|
2,0,7.9|
2,1,5.1|
];
constraint_x4_x2=[
0,1,7.2|
0,2,7.7|
1,0,9.7|
1,2,7.2|
2,0,8.3|
2,1,0.21|
];
constraint_x4_x3=[
0,1,6.6|
0,2,9.2|
1,0,4.7|
1,2,4.3|
2,0,4|
2,1,5|
];
constraint_x5_x4=[
0,1,9.3|
0,2,8|
1,0,4.4|
1,2,5.3|
2,0,9.9|
2,1,2.3|
];
constraint_x6_x1=[
0,1,7.8|
0,2,6.7|
1,0,5.7|
1,2,8.7|
2,0,7.6|
2,1,3.7|
];
constraint_x6_x3=[
0,1,1.3|
0,2,4.5|
1,0,4.2|
1,2,6.6|
2,0,0.25|
2,1,3.9|
];
constraint_x6_x5=[
0,1,4.2|
0,2,2.8|
1,0,0.26|
1,2,2|
2,0,1.1|
2,1,4.6|
];
constraint_x7_x1=[
0,1,5.4|
0,2,7.3|
1,0,4.1|
1,2,2.5|
2,0,2.4|
2,1,8|
];
constraint_x7_x3=[
0,1,1.4|
0,2,6.6|
1,0,6.2|
1,2,5.4|
2,0,6.1|
2,1,4|
];
constraint_x7_x4=[
0,1,5.5|
0,2,7.7|
1,0,1|
1,2,2.6|
2,0,3.6|
2,1,9.6|
];
constraint_x7_x5=[
0,1,2.7|
0,2,4.7|
1,0,9.4|
1,2,8.6|
2,0,1.7|
2,1,6.7|
];
constraint_x7_x6=[
0,1,8.8|
0,2,0.39|
1,0,7|
1,2,4.1|
2,0,0.87|
2,1,4.2|
];
constraint_x8_x5=[
0,1,8.4|
0,2,3.2|
1,0,0.64|
1,2,0.51|
2,0,5.6|
2,1,5.1|
];
constraint_x8_x6=[
0,1,6|
0,2,5.7|
1,0,7.2|
1,2,4.7|
2,0,7.9|
2,1,6|
];
constraint_x9_x1=[
0,1,1.1|
0,2,1|
1,0,9.8|
1,2,6.6|
2,0,8.4|
2,1,5.9|
];
constraint_x9_x2=[
0,1,7.6|
0,2,4.8|
1,0,3.8|
1,2,1.6|
2,0,4.8|
2,1,1.5|
];
constraint_x9_x3=[
0,1,0.69|
0,2,5.8|
1,0,2.3|
1,2,5.7|
2,0,1.9|
2,1,9.8|
];
constraint_x9_x6=[
0,1,7.1|
0,2,10|
1,0,0.78|
1,2,8.5|
2,0,4.4|
2,1,6.5|
];
constraint_x10_x2=[
0,1,8.2|
0,2,8.3|
1,0,6.9|
1,2,2.5|
2,0,7.9|
2,1,8.5|
];
constraint_x10_x4=[
0,1,0.72|
0,2,5.9|
1,0,0.67|
1,2,4.8|
2,0,6|
2,1,3.8|
];
constraint_x10_x5=[
0,1,7.4|
0,2,2.3|
1,0,4.7|
1,2,10|
2,0,9.2|
2,1,9.4|
];
constraint_x10_x8=[
0,1,8.4|
0,2,1.5|
1,0,2.4|
1,2,1.1|
2,0,7.8|
2,1,7.3|
];
constraint_x1_y1=[
0,0,4.2|
0,1,3.8|
0,2,6.5|
1,0,5.2|
1,1,8.8|
1,2,3.2|
2,0,3.8|
2,1,2.8|
2,2,3.2|
];
constraint_x2_y2=[
0,0,5.6|
0,1,3|
0,2,3.9|
1,0,0.76|
1,1,8|
1,2,6.3|
2,0,7.2|
2,1,3|
2,2,1.5|
];
initial_distribution_y1=[0.24,0.38,0.38];
initial_distribution_y2=[0.16,0.52,0.32];
transition_y1=[
0.2,0.6,0.2|
0.041,0.57,0.39|
0.3,0.4,0.3|
];
transition_y2=[
0.41,0.31,0.27|
0.24,0.6,0.16|
0.22,0.44,0.34|
];
